nK = 1344;
nT = 6;
nI = 14;
L = 29;
TT = 278;
np = 1;
nc = 3;
b = [53, 42, 63, 28, 22, 25, 53, 27, 61, 63, 25, 50, 59, 45];
d = [122, 72, 97, 77, 115, 45, 137, 103, 104, 132, 55, 114, 135, 96];
m = [2.5, 1.3, 2.2, 2.5, 1.3, 2.1, 1.9, 2.3, 1.4, 1.4, 1.8, 1, 1.8, 1.8];
pt = [0.23, 0.31, 0.35, 0.2, 0.22, 0.2];
st = [10.12, 15.5, 14, 9.2, 11.66, 10.6];
arc = {<1, 0, 1, 1, 0, 0, 0, [1, 1, 1, 1, 1, 1]>, <2, 1, 2, 1, 0, 0, 0, [1, 1, 1, 1, 1, 1]>, <3, 2, 3, 1, 0, 0, 0, [1, 1, 1, 1, 1, 1]>, <4, 3, 4, 1, 0, 0, 0, [1, 1, 1, 1, 1, 1]>, <5, 4, 5, 1, 0, 0, 0, [1, 1, 1, 1, 1, 1]>, <6, 5, 6, 1, 0, 0, 0, [1, 1, 1, 1, 1, 1]>, <7, 6, 7, 1, 0, 0, 0, [1, 1, 1, 1, 1, 1]>, <8, 7, 8, 1, 0, 0, 0, [1, 1, 1, 1, 1, 1]>, <9, 8, 9, 1, 0, 0, 0, [1, 1, 1, 1, 1, 1]>, <10, 9, 10, 1, 0, 0, 0, [1, 1, 1, 1, 1, 1]>, <11, 10, 11, 1, 0, 0, 0, [1, 1, 1, 1, 1, 1]>, <12, 11, 12, 1, 0, 0, 0, [1, 1, 1, 1, 1, 1]>, <13, 12, 13, 1, 0, 0, 0, [1, 1, 1, 1, 1, 1]>, <14, 13, 14, 1, 0, 0, 0, [1, 1, 1, 1, 1, 1]>, <15, 14, 15, 1, 0, 0, 0, [1, 1, 1, 1, 1, 1]>, <16, 15, 16, 1, 0, 0, 0, [1, 1, 1, 1, 1, 1]>, <17, 16, 17, 1, 0, 0, 0, [1, 1, 1, 1, 1, 1]>, <18, 17, 18, 1, 0, 0, 0, [1, 1, 1, 1, 1, 1]>, <19, 18, 19, 1, 0, 0, 0, [1, 1, 1, 1, 1, 1]>, <20, 19, 20, 1, 0, 0, 0, [1, 1, 1, 1, 1, 1]>, <21, 20, 21, 1, 0, 0, 0, [1, 1, 1, 1, 1, 1]>, <22, 21, 22, 1, 0, 0, 0, [1, 1, 1, 1, 1, 1]>, <23, 22, 23, 1, 0, 0, 0, [1, 1, 1, 1, 1, 1]>, <24, 23, 24, 1, 0, 0, 0, [1, 1, 1, 1, 1, 1]>, <25, 24, 25, 1, 0, 0, 0, [1, 1, 1, 1, 1, 1]>, <26, 25, 26, 1, 0, 0, 0, [1, 1, 1, 1, 1, 1]>, <27, 26, 27, 1, 0, 0, 0, [1, 1, 1, 1, 1, 1]>, <28, 27, 28, 1, 0, 0, 0, [1, 1, 1, 1, 1, 1]>, <29, 28, 29, 1, 0, 0, 0, [1, 1, 1, 1, 1, 1]>, <30, 4, 11, 7, 1, 0, 0, [0, 0, 0, 1, 1, 0]>, <31, 5, 12, 7, 1, 0, 0, [0, 0, 0, 1, 1, 0]>, <32, 11, 18, 7, 1, 0, 0, [0, 0, 0, 1, 1, 0]>, <33, 12, 19, 7, 1, 0, 0, [0, 0, 0, 1, 1, 0]>, <34, 17, 24, 7, 1, 0, 0, [0, 0, 0, 1, 1, 0]>, <35, 18, 25, 7, 1, 0, 0, [0, 0, 0, 1, 1, 0]>, <36, 19, 26, 7, 1, 0, 0, [0, 0, 0, 1, 1, 0]>, <37, 20, 27, 7, 1, 0, 0, [0, 0, 0, 1, 1, 0]>, <38, 2, 12, 10, 2, 0, 1, [1, 1, 0, 0, 0, 0]>, <39, 3, 13, 10, 2, 0, 1, [1, 1, 0, 0, 0, 0]>, <40, 4, 14, 10, 2, 0, 1, [1, 1, 0, 0, 0, 0]>, <41, 5, 15, 10, 2, 0, 1, [1, 1, 0, 0, 0, 0]>, <42, 10, 20, 10, 2, 0, 1, [1, 1, 0, 0, 0, 0]>, <43, 11, 21, 10, 2, 0, 1, [1, 1, 0, 0, 0, 0]>, <44, 12, 22, 10, 2, 0, 1, [1, 1, 0, 0, 0, 0]>, <45, 14, 24, 10, 2, 0, 1, [1, 1, 0, 0, 0, 0]>, <46, 15, 25, 10, 2, 0, 1, [1, 1, 0, 0, 0, 0]>, <47, 16, 26, 10, 2, 0, 1, [1, 1, 0, 0, 0, 0]>, <48, 17, 27, 10, 2, 0, 1, [1, 1, 0, 0, 0, 0]>, <49, 18, 28, 10, 2, 0, 1, [1, 1, 0, 0, 0, 0]>, <50, 19, 29, 10, 2, 0, 1, [1, 1, 0, 0, 0, 0]>, <51, 3, 12, 9, 3, 0, 1, [0, 0, 0, 0, 1, 1]>, <52, 4, 13, 9, 3, 0, 1, [0, 0, 0, 0, 1, 1]>, <53, 5, 14, 9, 3, 0, 1, [0, 0, 0, 0, 1, 1]>, <54, 11, 20, 9, 3, 0, 1, [0, 0, 0, 0, 1, 1]>, <55, 12, 21, 9, 3, 0, 1, [0, 0, 0, 0, 1, 1]>, <56, 15, 24, 9, 3, 0, 1, [0, 0, 0, 0, 1, 1]>, <57, 16, 25, 9, 3, 0, 1, [0, 0, 0, 0, 1, 1]>, <58, 17, 26, 9, 3, 0, 1, [0, 0, 0, 0, 1, 1]>, <59, 18, 27, 9, 3, 0, 1, [0, 0, 0, 0, 1, 1]>, <60, 19, 28, 9, 3, 0, 1, [0, 0, 0, 0, 1, 1]>, <61, 20, 29, 9, 3, 0, 1, [0, 0, 0, 0, 1, 1]>, <62, 0, 12, 12, 4, 1, 0, [1, 1, 0, 0, 0, 0]>, <63, 1, 13, 12, 4, 1, 0, [1, 1, 0, 0, 0, 0]>, <64, 2, 14, 12, 4, 1, 0, [1, 1, 0, 0, 0, 0]>, <65, 3, 15, 12, 4, 1, 0, [1, 1, 0, 0, 0, 0]>, <66, 4, 16, 12, 4, 1, 0, [1, 1, 0, 0, 0, 0]>, <67, 5, 17, 12, 4, 1, 0, [1, 1, 0, 0, 0, 0]>, <68, 8, 20, 12, 4, 1, 0, [1, 1, 0, 0, 0, 0]>, <69, 9, 21, 12, 4, 1, 0, [1, 1, 0, 0, 0, 0]>, <70, 10, 22, 12, 4, 1, 0, [1, 1, 0, 0, 0, 0]>, <71, 11, 23, 12, 4, 1, 0, [1, 1, 0, 0, 0, 0]>, <72, 12, 24, 12, 4, 1, 0, [1, 1, 0, 0, 0, 0]>, <73, 13, 25, 12, 4, 1, 0, [1, 1, 0, 0, 0, 0]>, <74, 14, 26, 12, 4, 1, 0, [1, 1, 0, 0, 0, 0]>, <75, 15, 27, 12, 4, 1, 0, [1, 1, 0, 0, 0, 0]>, <76, 16, 28, 12, 4, 1, 0, [1, 1, 0, 0, 0, 0]>, <77, 17, 29, 12, 4, 1, 0, [1, 1, 0, 0, 0, 0]>, <78, 4, 11, 7, 5, 0, 0, [0, 0, 1, 1, 0, 0]>, <79, 5, 12, 7, 5, 0, 0, [0, 0, 1, 1, 0, 0]>, <80, 11, 18, 7, 5, 0, 0, [0, 0, 1, 1, 0, 0]>, <81, 12, 19, 7, 5, 0, 0, [0, 0, 1, 1, 0, 0]>, <82, 17, 24, 7, 5, 0, 0, [0, 0, 1, 1, 0, 0]>, <83, 18, 25, 7, 5, 0, 0, [0, 0, 1, 1, 0, 0]>, <84, 19, 26, 7, 5, 0, 0, [0, 0, 1, 1, 0, 0]>, <85, 20, 27, 7, 5, 0, 0, [0, 0, 1, 1, 0, 0]>, <86, 2, 12, 10, 6, 1, 0, [0, 0, 1, 1, 0, 0]>, <87, 3, 13, 10, 6, 1, 0, [0, 0, 1, 1, 0, 0]>, <88, 4, 14, 10, 6, 1, 0, [0, 0, 1, 1, 0, 0]>, <89, 5, 15, 10, 6, 1, 0, [0, 0, 1, 1, 0, 0]>, <90, 10, 20, 10, 6, 1, 0, [0, 0, 1, 1, 0, 0]>, <91, 11, 21, 10, 6, 1, 0, [0, 0, 1, 1, 0, 0]>, <92, 12, 22, 10, 6, 1, 0, [0, 0, 1, 1, 0, 0]>, <93, 14, 24, 10, 6, 1, 0, [0, 0, 1, 1, 0, 0]>, <94, 15, 25, 10, 6, 1, 0, [0, 0, 1, 1, 0, 0]>, <95, 16, 26, 10, 6, 1, 0, [0, 0, 1, 1, 0, 0]>, <96, 17, 27, 10, 6, 1, 0, [0, 0, 1, 1, 0, 0]>, <97, 18, 28, 10, 6, 1, 0, [0, 0, 1, 1, 0, 0]>, <98, 19, 29, 10, 6, 1, 0, [0, 0, 1, 1, 0, 0]>, <99, 2, 12, 10, 7, 0, 0, [1, 0, 0, 0, 0, 1]>, <100, 3, 13, 10, 7, 0, 0, [1, 0, 0, 0, 0, 1]>, <101, 4, 14, 10, 7, 0, 0, [1, 0, 0, 0, 0, 1]>, <102, 5, 15, 10, 7, 0, 0, [1, 0, 0, 0, 0, 1]>, <103, 10, 20, 10, 7, 0, 0, [1, 0, 0, 0, 0, 1]>, <104, 11, 21, 10, 7, 0, 0, [1, 0, 0, 0, 0, 1]>, <105, 12, 22, 10, 7, 0, 0, [1, 0, 0, 0, 0, 1]>, <106, 14, 24, 10, 7, 0, 0, [1, 0, 0, 0, 0, 1]>, <107, 15, 25, 10, 7, 0, 0, [1, 0, 0, 0, 0, 1]>, <108, 16, 26, 10, 7, 0, 0, [1, 0, 0, 0, 0, 1]>, <109, 17, 27, 10, 7, 0, 0, [1, 0, 0, 0, 0, 1]>, <110, 18, 28, 10, 7, 0, 0, [1, 0, 0, 0, 0, 1]>, <111, 19, 29, 10, 7, 0, 0, [1, 0, 0, 0, 0, 1]>, <112, 3, 12, 9, 8, 0, 1, [0, 0, 0, 1, 1, 0]>, <113, 4, 13, 9, 8, 0, 1, [0, 0, 0, 1, 1, 0]>, <114, 5, 14, 9, 8, 0, 1, [0, 0, 0, 1, 1, 0]>, <115, 11, 20, 9, 8, 0, 1, [0, 0, 0, 1, 1, 0]>, <116, 12, 21, 9, 8, 0, 1, [0, 0, 0, 1, 1, 0]>, <117, 15, 24, 9, 8, 0, 1, [0, 0, 0, 1, 1, 0]>, <118, 16, 25, 9, 8, 0, 1, [0, 0, 0, 1, 1, 0]>, <119, 17, 26, 9, 8, 0, 1, [0, 0, 0, 1, 1, 0]>, <120, 18, 27, 9, 8, 0, 1, [0, 0, 0, 1, 1, 0]>, <121, 19, 28, 9, 8, 0, 1, [0, 0, 0, 1, 1, 0]>, <122, 20, 29, 9, 8, 0, 1, [0, 0, 0, 1, 1, 0]>, <123, 4, 12, 8, 9, 0, 1, [1, 0, 0, 0, 0, 1]>, <124, 5, 13, 8, 9, 0, 1, [1, 0, 0, 0, 0, 1]>, <125, 11, 19, 8, 9, 0, 1, [1, 0, 0, 0, 0, 1]>, <126, 12, 20, 8, 9, 0, 1, [1, 0, 0, 0, 0, 1]>, <127, 16, 24, 8, 9, 0, 1, [1, 0, 0, 0, 0, 1]>, <128, 17, 25, 8, 9, 0, 1, [1, 0, 0, 0, 0, 1]>, <129, 18, 26, 8, 9, 0, 1, [1, 0, 0, 0, 0, 1]>, <130, 19, 27, 8, 9, 0, 1, [1, 0, 0, 0, 0, 1]>, <131, 20, 28, 8, 9, 0, 1, [1, 0, 0, 0, 0, 1]>, <132, 1, 12, 11, 10, 1, 0, [0, 1, 1, 0, 0, 0]>, <133, 2, 13, 11, 10, 1, 0, [0, 1, 1, 0, 0, 0]>, <134, 3, 14, 11, 10, 1, 0, [0, 1, 1, 0, 0, 0]>, <135, 4, 15, 11, 10, 1, 0, [0, 1, 1, 0, 0, 0]>, <136, 5, 16, 11, 10, 1, 0, [0, 1, 1, 0, 0, 0]>, <137, 9, 20, 11, 10, 1, 0, [0, 1, 1, 0, 0, 0]>, <138, 10, 21, 11, 10, 1, 0, [0, 1, 1, 0, 0, 0]>, <139, 11, 22, 11, 10, 1, 0, [0, 1, 1, 0, 0, 0]>, <140, 12, 23, 11, 10, 1, 0, [0, 1, 1, 0, 0, 0]>, <141, 13, 24, 11, 10, 1, 0, [0, 1, 1, 0, 0, 0]>, <142, 14, 25, 11, 10, 1, 0, [0, 1, 1, 0, 0, 0]>, <143, 15, 26, 11, 10, 1, 0, [0, 1, 1, 0, 0, 0]>, <144, 16, 27, 11, 10, 1, 0, [0, 1, 1, 0, 0, 0]>, <145, 17, 28, 11, 10, 1, 0, [0, 1, 1, 0, 0, 0]>, <146, 18, 29, 11, 10, 1, 0, [0, 1, 1, 0, 0, 0]>, <147, 3, 12, 9, 11, 0, 0, [0, 0, 0, 0, 1, 1]>, <148, 4, 13, 9, 11, 0, 0, [0, 0, 0, 0, 1, 1]>, <149, 5, 14, 9, 11, 0, 0, [0, 0, 0, 0, 1, 1]>, <150, 11, 20, 9, 11, 0, 0, [0, 0, 0, 0, 1, 1]>, <151, 12, 21, 9, 11, 0, 0, [0, 0, 0, 0, 1, 1]>, <152, 15, 24, 9, 11, 0, 0, [0, 0, 0, 0, 1, 1]>, <153, 16, 25, 9, 11, 0, 0, [0, 0, 0, 0, 1, 1]>, <154, 17, 26, 9, 11, 0, 0, [0, 0, 0, 0, 1, 1]>, <155, 18, 27, 9, 11, 0, 0, [0, 0, 0, 0, 1, 1]>, <156, 19, 28, 9, 11, 0, 0, [0, 0, 0, 0, 1, 1]>, <157, 20, 29, 9, 11, 0, 0, [0, 0, 0, 0, 1, 1]>, <158, 1, 12, 11, 12, 0, 1, [1, 1, 0, 0, 0, 0]>, <159, 2, 13, 11, 12, 0, 1, [1, 1, 0, 0, 0, 0]>, <160, 3, 14, 11, 12, 0, 1, [1, 1, 0, 0, 0, 0]>, <161, 4, 15, 11, 12, 0, 1, [1, 1, 0, 0, 0, 0]>, <162, 5, 16, 11, 12, 0, 1, [1, 1, 0, 0, 0, 0]>, <163, 9, 20, 11, 12, 0, 1, [1, 1, 0, 0, 0, 0]>, <164, 10, 21, 11, 12, 0, 1, [1, 1, 0, 0, 0, 0]>, <165, 11, 22, 11, 12, 0, 1, [1, 1, 0, 0, 0, 0]>, <166, 12, 23, 11, 12, 0, 1, [1, 1, 0, 0, 0, 0]>, <167, 13, 24, 11, 12, 0, 1, [1, 1, 0, 0, 0, 0]>, <168, 14, 25, 11, 12, 0, 1, [1, 1, 0, 0, 0, 0]>, <169, 15, 26, 11, 12, 0, 1, [1, 1, 0, 0, 0, 0]>, <170, 16, 27, 11, 12, 0, 1, [1, 1, 0, 0, 0, 0]>, <171, 17, 28, 11, 12, 0, 1, [1, 1, 0, 0, 0, 0]>, <172, 18, 29, 11, 12, 0, 1, [1, 1, 0, 0, 0, 0]>, <173, 4, 12, 8, 13, 0, 1, [0, 1, 1, 0, 0, 0]>, <174, 5, 13, 8, 13, 0, 1, [0, 1, 1, 0, 0, 0]>, <175, 11, 19, 8, 13, 0, 1, [0, 1, 1, 0, 0, 0]>, <176, 12, 20, 8, 13, 0, 1, [0, 1, 1, 0, 0, 0]>, <177, 16, 24, 8, 13, 0, 1, [0, 1, 1, 0, 0, 0]>, <178, 17, 25, 8, 13, 0, 1, [0, 1, 1, 0, 0, 0]>, <179, 18, 26, 8, 13, 0, 1, [0, 1, 1, 0, 0, 0]>, <180, 19, 27, 8, 13, 0, 1, [0, 1, 1, 0, 0, 0]>, <181, 20, 28, 8, 13, 0, 1, [0, 1, 1, 0, 0, 0]>, <182, 2, 12, 10, 14, 0, 1, [0, 1, 1, 0, 0, 0]>, <183, 3, 13, 10, 14, 0, 1, [0, 1, 1, 0, 0, 0]>, <184, 4, 14, 10, 14, 0, 1, [0, 1, 1, 0, 0, 0]>, <185, 5, 15, 10, 14, 0, 1, [0, 1, 1, 0, 0, 0]>, <186, 10, 20, 10, 14, 0, 1, [0, 1, 1, 0, 0, 0]>, <187, 11, 21, 10, 14, 0, 1, [0, 1, 1, 0, 0, 0]>, <188, 12, 22, 10, 14, 0, 1, [0, 1, 1, 0, 0, 0]>, <189, 14, 24, 10, 14, 0, 1, [0, 1, 1, 0, 0, 0]>, <190, 15, 25, 10, 14, 0, 1, [0, 1, 1, 0, 0, 0]>, <191, 16, 26, 10, 14, 0, 1, [0, 1, 1, 0, 0, 0]>, <192, 17, 27, 10, 14, 0, 1, [0, 1, 1, 0, 0, 0]>, <193, 18, 28, 10, 14, 0, 1, [0, 1, 1, 0, 0, 0]>, <194, 19, 29, 10, 14, 0, 1, [0, 1, 1, 0, 0, 0]>};
